benchmarks_CP/INST_36x36/25/inst36x36_25_41.dzn
S=6;
start=[|
-1,	-1,	-1,	-1,	-1,	-1,	-1,	-1,	18,	-1,	-1,	-1,	-1,	-1,	-1,	-1,	-1,	-1,	-1,	-1,	-1,	33,	-1,	-1,	-1,	-1,	-1,	31,	20,	-1,	-1,	-1,	-1,	28,	-1,	-1|
-1,	-1,	8,	-1,	-1,	-1,	-1,	19,	-1,	-1,	-1,	-1,	-1,	-1,	-1,	4,	22,	-1,	25,	-1,	-1,	-1,	14,	-1,	-1,	-1,	-1,	-1,	-1,	-1,	35,	20,	-1,	-1,	-1,	-1|
-1,	27,	-1,	-1,	-1,	-1,	-1,	-1,	-1,	-1,	-1,	-1,	-1,	-1,	-1,	-1,	-1,	-1,	22,	34,	-1,	-1,	28,	-1,	-1,	-1,	-1,	-1,	-1,	-1,	-1,	-1,	-1,	-1,	-1,	-1|
32,	-1,	-1,	-1,	33,	5,	2,	-1,	-1,	-1,	-1,	-1,	30,	-1,	36,	25,	-1,	-1,	6,	-1,	29,	-1,	9,	-1,	7,	-1,	-1,	-1,	26,	-1,	-1,	22,	18,	-1,	23,	-1|
-1,	-1,	11,	-1,	-1,	-1,	-1,	-1,	-1,	-1,	24,	-1,	-1,	-1,	33,	21,	-1,	-1,	-1,	23,	-1,	-1,	-1,	-1,	34,	5,	-1,	-1,	-1,	-1,	-1,	31,	-1,	10,	-1,	-1|
-1,	13,	35,	-1,	-1,	25,	26,	-1,	34,	-1,	-1,	-1,	-1,	-1,	-1,	11,	-1,	-1,	-1,	-1,	12,	-1,	24,	-1,	-1,	-1,	-1,	-1,	-1,	-1,	-1,	-1,	-1,	-1,	-1,	3|
-1,	-1,	27,	-1,	-1,	-1,	-1,	5,	-1,	-1,	-1,	-1,	-1,	36,	10,	32,	-1,	18,	-1,	-1,	-1,	-1,	-1,	-1,	-1,	-1,	-1,	-1,	-1,	-1,	-1,	-1,	-1,	-1,	-1,	-1|
-1,	-1,	-1,	8,	-1,	-1,	21,	-1,	-1,	-1,	4,	-1,	-1,	-1,	-1,	-1,	23,	-1,	12,	-1,	-1,	35,	-1,	-1,	-1,	-1,	-1,	20,	29,	-1,	-1,	-1,	5,	-1,	-1,	30|
-1,	-1,	-1,	30,	13,	7,	-1,	-1,	9,	-1,	-1,	15,	-1,	-1,	-1,	-1,	-1,	-1,	-1,	-1,	-1,	3,	-1,	-1,	-1,	-1,	-1,	24,	-1,	-1,	22,	-1,	-1,	-1,	-1,	-1|
5,	19,	-1,	12,	-1,	-1,	35,	13,	-1,	-1,	-1,	-1,	-1,	-1,	-1,	-1,	-1,	-1,	-1,	1,	-1,	-1,	-1,	-1,	-1,	-1,	-1,	-1,	-1,	-1,	21,	16,	-1,	-1,	2,	-1|
26,	-1,	-1,	28,	21,	-1,	-1,	-1,	22,	-1,	23,	-1,	16,	-1,	12,	-1,	25,	-1,	-1,	-1,	-1,	-1,	-1,	-1,	-1,	-1,	-1,	-1,	-1,	36,	-1,	7,	-1,	1,	-1,	-1|
20,	-1,	-1,	33,	-1,	-1,	10,	-1,	-1,	14,	25,	-1,	-1,	-1,	-1,	-1,	-1,	-1,	31,	-1,	-1,	-1,	-1,	-1,	-1,	-1,	-1,	16,	2,	-1,	-1,	3,	-1,	-1,	36,	-1|
27,	-1,	-1,	-1,	-1,	30,	-1,	-1,	-1,	-1,	-1,	-1,	-1,	-1,	-1,	-1,	-1,	-1,	33,	-1,	-1,	14,	-1,	-1,	-1,	-1,	21,	2,	34,	-1,	-1,	-1,	-1,	5,	1,	-1|
-1,	29,	-1,	-1,	-1,	-1,	-1,	-1,	-1,	26,	15,	-1,	8,	-1,	-1,	13,	-1,	-1,	-1,	-1,	21,	18,	-1,	6,	-1,	31,	-1,	-1,	36,	-1,	-1,	-1,	-1,	-1,	-1,	32|
-1,	32,	-1,	-1,	-1,	19,	-1,	-1,	10,	-1,	18,	-1,	-1,	-1,	-1,	-1,	-1,	-1,	-1,	-1,	2,	29,	-1,	34,	5,	-1,	-1,	-1,	-1,	8,	-1,	-1,	-1,	-1,	-1,	-1|
-1,	-1,	-1,	-1,	8,	-1,	5,	-1,	-1,	-1,	-1,	-1,	-1,	2,	-1,	12,	-1,	-1,	35,	-1,	-1,	28,	-1,	-1,	17,	-1,	24,	-1,	4,	15,	-1,	-1,	-1,	-1,	-1,	-1|
17,	-1,	-1,	-1,	-1,	-1,	-1,	-1,	-1,	-1,	-1,	-1,	-1,	-1,	-1,	-1,	33,	-1,	-1,	-1,	-1,	-1,	-1,	-1,	30,	14,	6,	-1,	-1,	-1,	-1,	-1,	-1,	19,	12,	-1|
-1,	-1,	-1,	24,	-1,	-1,	-1,	-1,	36,	-1,	-1,	-1,	-1,	17,	18,	-1,	27,	-1,	-1,	-1,	5,	-1,	-1,	-1,	-1,	-1,	-1,	1,	-1,	10,	20,	-1,	-1,	-1,	-1,	-1|
-1,	-1,	16,	-1,	-1,	-1,	-1,	-1,	-1,	-1,	-1,	10,	-1,	-1,	25,	-1,	-1,	-1,	34,	-1,	-1,	-1,	7,	-1,	-1,	-1,	-1,	19,	-1,	-1,	-1,	-1,	-1,	-1,	-1,	-1|
-1,	-1,	12,	-1,	31,	-1,	-1,	-1,	-1,	-1,	-1,	-1,	35,	-1,	-1,	-1,	-1,	-1,	13,	-1,	-1,	25,	-1,	-1,	-1,	-1,	-1,	15,	-1,	30,	26,	19,	-1,	-1,	-1,	-1|
-1,	-1,	-1,	-1,	-1,	-1,	-1,	-1,	-1,	-1,	-1,	-1,	18,	-1,	13,	14,	4,	36,	-1,	33,	-1,	-1,	2,	-1,	-1,	10,	-1,	-1,	-1,	17,	-1,	-1,	-1,	-1,	-1,	7|
-1,	-1,	22,	23,	17,	-1,	30,	18,	32,	33,	14,	-1,	-1,	-1,	-1,	16,	-1,	-1,	-1,	-1,	-1,	8,	-1,	-1,	-1,	-1,	-1,	-1,	1,	-1,	-1,	-1,	-1,	-1,	-1,	-1|
-1,	-1,	-1,	-1,	-1,	34,	-1,	-1,	23,	3,	-1,	-1,	-1,	5,	-1,	-1,	-1,	12,	-1,	32,	-1,	-1,	-1,	17,	-1,	-1,	-1,	-1,	-1,	-1,	29,	-1,	-1,	-1,	-1,	-1|
36,	-1,	-1,	-1,	-1,	20,	-1,	-1,	-1,	-1,	-1,	-1,	21,	-1,	1,	-1,	10,	-1,	26,	-1,	-1,	24,	5,	-1,	-1,	-1,	-1,	13,	-1,	-1,	11,	-1,	30,	-1,	-1,	-1|
-1,	-1,	-1,	-1,	-1,	-1,	-1,	-1,	-1,	-1,	-1,	-1,	-1,	-1,	-1,	-1,	-1,	-1,	-1,	-1,	-1,	-1,	-1,	-1,	-1,	-1,	-1,	32,	-1,	-1,	-1,	12,	-1,	-1,	-1,	-1|
-1,	20,	19,	-1,	-1,	32,	-1,	1,	21,	-1,	-1,	9,	-1,	29,	24,	-1,	-1,	-1,	-1,	26,	33,	17,	-1,	-1,	-1,	25,	-1,	-1,	-1,	-1,	7,	-1,	15,	36,	-1,	-1|
-1,	-1,	23,	-1,	-1,	-1,	-1,	14,	-1,	-1,	-1,	30,	-1,	-1,	-1,	33,	11,	-1,	-1,	5,	-1,	-1,	-1,	-1,	-1,	9,	-1,	-1,	-1,	-1,	8,	-1,	10,	-1,	28,	24|
-1,	-1,	-1,	-1,	-1,	-1,	-1,	-1,	15,	12,	-1,	-1,	-1,	-1,	-1,	-1,	-1,	-1,	-1,	-1,	-1,	1,	-1,	-1,	-1,	-1,	-1,	22,	-1,	-1,	14,	-1,	-1,	-1,	-1,	-1|
-1,	-1,	36,	-1,	-1,	-1,	-1,	-1,	-1,	-1,	-1,	33,	-1,	13,	-1,	-1,	-1,	-1,	-1,	-1,	-1,	-1,	-1,	-1,	-1,	-1,	-1,	34,	-1,	-1,	-1,	18,	-1,	-1,	-1,	-1|
-1,	-1,	-1,	-1,	18,	-1,	-1,	-1,	-1,	36,	-1,	-1,	-1,	16,	-1,	-1,	30,	15,	14,	-1,	-1,	22,	-1,	32,	10,	-1,	-1,	-1,	-1,	-1,	-1,	-1,	-1,	-1,	-1,	9|
-1,	35,	-1,	3,	-1,	-1,	36,	15,	-1,	-1,	21,	-1,	-1,	8,	4,	31,	-1,	-1,	1,	-1,	-1,	-1,	-1,	-1,	24,	-1,	-1,	-1,	-1,	-1,	-1,	28,	-1,	-1,	27,	5|
-1,	-1,	-1,	-1,	11,	16,	-1,	-1,	5,	-1,	20,	-1,	3,	32,	35,	1,	12,	-1,	-1,	-1,	15,	-1,	4,	-1,	-1,	-1,	-1,	-1,	-1,	-1,	-1,	-1,	-1,	13,	-1,	25|
-1,	-1,	-1,	-1,	-1,	-1,	-1,	-1,	-1,	22,	3,	-1,	-1,	-1,	30,	10,	-1,	-1,	19,	-1,	-1,	26,	18,	5,	28,	-1,	31,	-1,	-1,	-1,	-1,	-1,	-1,	24,	-1,	-1|
-1,	-1,	24,	-1,	-1,	-1,	-1,	-1,	-1,	32,	1,	-1,	14,	28,	16,	-1,	-1,	-1,	8,	-1,	-1,	-1,	-1,	-1,	9,	-1,	-1,	-1,	-1,	-1,	23,	-1,	-1,	-1,	30,	-1|
34,	-1,	-1,	-1,	-1,	-1,	18,	28,	-1,	31,	-1,	-1,	-1,	-1,	-1,	-1,	9,	-1,	-1,	-1,	35,	-1,	-1,	-1,	-1,	-1,	1,	-1,	13,	-1,	36,	-1,	-1,	-1,	-1,	-1|
28,	-1,	21,	-1,	-1,	-1,	-1,	-1,	-1,	-1,	-1,	-1,	-1,	-1,	-1,	-1,	-1,	-1,	-1,	2,	13,	16,	-1,	-1,	-1,	-1,	-1,	-1,	-1,	-1,	-1,	-1,	-1,	-1,	9,	-1|];
